c turning on binary mode checking
c parsing input formula with 202048 variables and 780990 clauses
c finished parsing, read 16432141 bytes from proof file
c detected empty clause; start verification via backward checking
c 11357 of 780990 clauses in core                            
c 14594 of 449282 lemmas in core using 89032 resolution steps
c 0 RAT lemmas in core; 914 redundant literals in core lemmas
s VERIFIED
c verification time: 2.103 seconds
